69 138 48 169 97 166 96 104 31 93 139 16 89 88 10 167 109 41 22 120 189 100 194 73 111 60 108 124 145 45 51 7 65 37 185 148 33 80 137 119 179 129 174 0 49 168 161 125 199 155 180 78 12 178 87 26 23 164 146 40 83 136 171 68 133 79 193 156 106 183 157 151 15 76 42 90 53 62 153 14 72 38 187 70 121 122 92 3 154 43 59 52 123 117 61 34 118 50 36 195 18 191 99 29 143 1 47 140 91 116 135 144 177 54 112 86 25 162 130 147 94 55 150 27 11 114 105 103 182 81 132 46 20 181 163 113 24 19 141 9 8 101 115 4 176 2 82 39 5 58 149 63 84 17 188 142 95 85 159 173 64 186 13 67 32 165 44 98 77 30 56 71 134 160 75 126 170 6 197 131 66 74 158 35 128 107 198 175 196 190 28 127 57 102 110 192 21 184 172 152